50
     4    12    72    11    32    83    26    81    86    43    88    69    53    53     2    57    59    41     2    42    71   100    14    38    97    88    53    73    87    31    26    93    28    17    29    58    51     3    51    44    26     9    68    41    64    23    51    58    18    97
     7     7    10     1     8    10     9     8    10     6    10     5     6     6     5    10     4     1     1     6     2     3     5     8     9     2    10     1     9     9     4     9     6     3     7     4     8     5     1     2     3     3     9     3     4     8    10     3     4     8
  2058  2362  1450  1484  2338  2348  1914  1423  1802  2404  2018  1815  2344  1921  2108  2201  1770  1262  1634  2534  2547  1905  2463  1487  2418  1484  1307  1319  1702  2648  1742  1836  2614  2301  2276  2339  2054  1907  2567  1404  2540  2538  1650  1730  2086  2113  1253  2657  2242  2063
